outputs/case_171.model.txt
capital_adequacy_ratio = 100
net_worth_deteriorated = False
financial_deterioration = False
net_worth_ratio = 3
profit_loss_deteriorated = False
takeover_ordered = False
improvement_plan_approved = False
suspension_ordered = False
net_worth = 50
capital_level_4_measures_executed = False
dissolution_ordered = False
improvement_plan_executed = False
improvement_plan_submitted = False
supervision_ordered = False
internal_control_system_established = True
internal_control_system_executed = True
internal_handling_system_established = True
internal_handling_system_executed = True
internal_handling_established = True
financial_deterioration_reported = False
capital_level_4_noncompliance = False
internal_handling_compliance = True
capital_level = 0
supervision_measures_taken = False
internal_systems_compliance = True
internal_control_executed = True
violation_internal_control = False
penalty = False
financial_deterioration_not_improved = False
capital_level_4_measures_completed = False
internal_control_compliance = True
internal_handling_executed = True
internal_control_established = True
violation_internal_handling = False